NAME : LPS-n35-m216
COMMENT : (Lartu-Peter-Santi Plot, instance 13016 out of 39200. 35 customers.)
TYPE : CVRP
DIMENSION : 35
EDGE_WEIGHT_TYPE : EUC_2D
CAPACITY : 111
NODE_COORD_SECTION
 1 96 28
 2 98 24
 3 26 84
 4 35 17
 5 5 86
 6 11 75
 7 36 45
 8 74 5
 9 59 50
 10 80 10
 11 59 97
 12 21 32
 13 87 20
 14 91 98
 15 32 11
 16 90 100
 17 91 66
 18 20 65
 19 62 2
 20 69 2
 21 8 14
 22 46 94
 23 23 29
 24 23 22
 25 5 30
 26 77 71
 27 99 73
 28 44 25
 29 75 89
 30 67 61
 31 61 57
 32 34 86
 33 9 11
 34 40 6
 35 10 83
DEMAND_SECTION
1 0
2 35
3 31
4 90
5 41
6 46
7 102
8 7
9 82
10 51
11 26
12 59
13 48
14 27
15 22
16 109
17 8
18 62
19 17
20 15
21 62
22 35
23 111
24 7
25 6
26 103
27 45
28 17
29 36
30 27
31 57
32 82
33 94
34 23
35 11
DEPOT_SECTION
 1
 -1
EOF
